data/CVRPLIB/Vrp-Set-XML100/instances/XML100_1315_20.vrp
NAME : XML100_1315_20
COMMENT : Generated by Queiroga, Sadykov, Uchoa, and Vidal (2021)
TYPE : CVRP
DIMENSION : 101
EDGE_WEIGHT_TYPE : EUC_2D
CAPACITY : 17
NODE_COORD_SECTION
1    714  134 
2    537  93  
3    522  185 
4    346  421 
5    849  169 
6    827  149 
7    315  344 
8    544  550 
9    988  271 
10   409  942 
11   704  104 
12   337  882 
13   467  973 
14   196  777 
15   974  839 
16   255  141 
17   790  71  
18   983  262 
19   828  447 
20   605  882 
21   989  104 
22   413  500 
23   840  426 
24   979  101 
25   213  793 
26   504  457 
27   684  174 
28   627  738 
29   430  681 
30   575  95  
31   343  496 
32   434  940 
33   964  488 
34   791  83  
35   73   892 
36   224  294 
37   219  10  
38   624  903 
39   526  628 
40   762  6   
41   866  732 
42   608  633 
43   451  926 
44   404  572 
45   399  965 
46   779  171 
47   638  323 
48   511  569 
49   440  949 
50   640  629 
51   371  656 
52   655  713 
53   781  48  
54   433  673 
55   950  445 
56   840  879 
57   817  114 
58   15   758 
59   927  72  
60   412  94  
61   698  97  
62   802  123 
63   479  931 
64   524  663 
65   448  936 
66   197  834 
67   743  2   
68   724  80  
69   120  477 
70   459  739 
71   974  77  
72   260  703 
73   402  575 
74   986  492 
75   416  951 
76   843  107 
77   956  105 
78   413  352 
79   384  326 
80   188  303 
81   755  428 
82   768  351 
83   886  523 
84   549  919 
85   670  280 
86   993  834 
87   437  667 
88   499  711 
89   106  967 
90   211  366 
91   120  246 
92   785  720 
93   471  685 
94   888  851 
95   841  110 
96   496  959 
97   400  868 
98   486  832 
99   635  362 
100  444  941 
101  921  168 
DEMAND_SECTION
1    0   
2    1   
3    1   
4    1   
5    1   
6    1   
7    1   
8    1   
9    1   
10   1   
11   1   
12   1   
13   1   
14   1   
15   1   
16   1   
17   1   
18   1   
19   1   
20   1   
21   1   
22   1   
23   1   
24   1   
25   1   
26   1   
27   1   
28   1   
29   1   
30   1   
31   1   
32   1   
33   1   
34   1   
35   1   
36   1   
37   1   
38   1   
39   1   
40   1   
41   1   
42   1   
43   1   
44   1   
45   1   
46   1   
47   1   
48   1   
49   1   
50   1   
51   1   
52   1   
53   1   
54   1   
55   1   
56   1   
57   1   
58   1   
59   1   
60   1   
61   1   
62   1   
63   1   
64   1   
65   1   
66   1   
67   1   
68   1   
69   1   
70   1   
71   1   
72   1   
73   1   
74   1   
75   1   
76   1   
77   1   
78   1   
79   1   
80   1   
81   1   
82   1   
83   1   
84   1   
85   1   
86   1   
87   1   
88   1   
89   1   
90   1   
91   1   
92   1   
93   1   
94   1   
95   1   
96   1   
97   1   
98   1   
99   1   
100  1   
101  1   
DEPOT_SECTION
1
-1
EOF
