data/CVRPLIB/Vrp-Set-XML100/solutions/XML100_1315_20.sol
Route #1: 58 70 20 23 76 100 17 8 54 73 32 82 18 22 81 84 26
Route #2: 80 91 40 85 14 93 55 37 19 83 95 12 62 27 51 41 49
Route #3: 92 69 96 11 44 9 74 31 48 99 64 42 97 87 63 38 7
Route #4: 10 60 67 66 39 52 16 33 61 56 75 94 5 4 45
Route #5: 2 77 78 89 68 57 34 88 65 24 13 71 50 28 53 86 47
Route #6: 46 98 25 21 43 72 30 3 6 35 79 90 15 36 59 1 29
Cost 10505
